1402.83
1400.51
1375.17
1370.86
1356.46
1345.07
1340.05
1333.77
1331.80
1313.79
1305.83
1284.37
1269.93
1245.02
1245.02
1228.64
1228.64
1223.06
1213.53
1204.59
1198.59
1198.59
1198.23
1198.23
1193.91
1174.85
1173.65
1150.18
1150.18
1150.18
1148.42
1138.93
1129.61
1129.61
1129.02
1126.85
1122.22
1117.12
1116.66
1116.29
1111.99
1111.99
1096.11
1096.11
1095.45
1095.45
1086.35
1086.35
1084.80
1080.56
1080.56
1080.56
1080.52
1079.86
1077.38
1077.38
1076.00
1075.31
1056.31
1055.59
1053.31
1053.31
1044.79
1041.63
1036.82
1036.82
1035.55
1035.55
1032.23
1029.62
1025.51
1024.56
1023.98
1015.37
1013.12
1010.71
1004.27
1004.27
1003.42
1003.42
1001.26
1001.26
999.83
999.45
999.45
996.75
995.60
994.37
991.07
980.03
977.32
973.84
973.84
973.84
968.97
968.97
966.28
966.28
963.10
950.58
